\* Problem: Unknown *\

Maximize
 obj: + xp_0_0 + xp_0_1 + xp_0_2 + xp_0_3 + xp_1_0 + xp_1_1 + xp_1_2
 + xp_2_0 + xp_2_1 + xp_2_2 + xp_2_3 + xp_3_0 + xp_3_1 + xp_4_0 + xp_5_0
 + xp_5_1 + xp_6_0 + xp_6_1 + xp_7_0 + xp_8_0 + xp_8_1 + xp_9_0
 + xp_10_0 + xp_10_1 + xp_11_0 + xp_11_1 + xp_11_2 + xp_11_3 + xp_12_0
 + xp_13_0 + xp_13_1 + xp_14_0 + xp_14_1 + xp_15_0 + xp_16_0 + xp_17_0
 + xp_17_1 + xp_17_2 + xp_17_3 + xp_17_4 + xp_18_0 + xp_18_1 + xp_18_2
 + xp_18_3 + xp_19_0 + xp_19_1 + xp_19_2 + xp_19_3 + xp_20_0 + xp_20_1
 + xp_21_0 + xp_21_1 + xp_21_2 + xp_21_3 + xp_22_0 + xp_22_1 + xp_22_2
 + xp_22_3 + xp_23_0 + xp_23_1 + xp_23_2 + xp_23_3

Subject To
 r_1: 0 xp_0_0 <= 26.7924528301887
 r_2: + xp_18_3 + xp_6_1 + xp_5_1 + xp_2_2 <= 26.2815479528884
 r_3: + xp_23_3 + xp_21_3 + xp_18_2 <= 27.6367006487488
 r_4: + xp_17_1 + xp_15_0 <= 27.6367006487488
 r_5: + xp_18_0 <= 25.9391100702576
 r_6: + xp_18_1 <= 26.9620253164557
 r_7: 0 xp_0_0 <= 26.7924528301887
 r_8: + xp_23_2 + xp_22_2 + xp_11_2 + xp_2_3 <= 26.2815479528884
 r_9: + xp_11_1 + xp_3_1 <= 27.6367006487488
 r_10: + xp_17_3 + xp_3_0 <= 27.6367006487488
 r_11: + xp_18_1 + xp_11_3 <= 25.9391100702576
 r_12: + xp_11_0 <= 26.9620253164557
 r_13: 0 xp_0_0 <= 29.2984869325997
 r_14: + xp_21_1 + xp_14_0 + xp_0_2 <= 26.2815479528884
 r_15: + xp_21_0 + xp_19_1 <= 27.6367006487488
 r_16: + xp_22_1 + xp_0_3 + xp_0_1 <= 28.3056478405316
 r_17: + xp_0_0 <= 25.9391100702576
 r_18: + xp_21_3 + xp_4_0 <= 26.7924528301887
 r_19: + xp_19_0 <= 26.7924528301887
 r_20: + xp_21_2 + xp_19_3 + xp_19_2 + xp_14_1 <= 29.2984869325997
 r_21: + xp_20_1 <= 26.2815479528884
 r_22: + xp_21_1 <= 27.6367006487488
 r_23: + xp_22_3 + xp_22_2 + xp_17_4 <= 28.3056478405316
 r_24: + xp_23_2 + xp_6_1 <= 27.6367006487488
 r_25: 0 xp_0_0 <= 29.2984869325997
 r_26: + xp_18_3 + xp_0_2 <= 25.9391100702576
 r_27: + xp_11_2 <= 26.2815479528884
 r_28: + xp_19_2 + xp_10_1 <= 26.2815479528884
 r_29: 0 xp_0_0 <= 27.6367006487488
 r_30: + xp_2_0 <= 27.6367006487488
 r_31: + xp_23_3 + xp_18_2 + xp_3_1 <= 27.6367006487488
 r_32: + xp_2_1 <= 29.2984869325997
 r_33: + xp_11_1 + xp_2_2 <= 27.6367006487488
 r_34: + xp_19_1 + xp_2_3 <= 27.6367006487488
 r_35: 0 xp_0_0 <= 28.3056478405316
 r_36: + xp_9_0 <= 28.3056478405316
 r_37: + xp_13_1 + xp_8_1 <= 27.6367006487488
 r_38: + xp_1_1 <= 29.2984869325997
 r_39: + xp_17_4 + xp_0_3 <= 27.6367006487488
 r_40: + xp_0_1 <= 25.9391100702576
 r_41: + xp_12_0 <= 27.6367006487488
 r_42: 0 xp_0_0 <= 27.6367006487488
 r_43: + xp_16_0 <= 27.6367006487488
 r_44: + xp_23_3 + xp_23_2 + xp_23_1 + xp_1_2 <= 29.2984869325997
 r_45: + xp_3_1 <= 27.6367006487488
 r_46: + xp_18_2 <= 25.9391100702576
 r_47: + xp_13_1 <= 29.2984869325997
 r_48: + xp_13_0 <= 29.2984869325997
 r_49: + xp_17_2 <= 27.6367006487488
 r_50: 0 xp_0_0 <= 25.9391100702576
 r_51: + xp_8_1 + xp_1_1 <= 27.6367006487488
 r_52: + xp_8_0 + xp_1_2 <= 27.6367006487488
 r_53: + xp_1_0 <= 27.6367006487488
 r_54: + xp_0_3 <= 25.9391100702576
 r_55: 0 xp_0_0 <= 27.6367006487488
 r_56: 0 xp_0_0 <= 27.6367006487488
 r_57: + xp_22_1 <= 25.9391100702576
 r_58: + xp_22_3 + xp_17_4 + xp_5_0 <= 25.9391100702576
 r_59: + xp_22_0 <= 25.9391100702576
 r_60: + xp_23_1 + xp_6_0 <= 25.9391100702576
 r_61: + xp_23_0 + xp_17_2 <= 25.9391100702576
 r_62: + xp_17_0 <= 25.9391100702576
 r_63: + xp_23_3 + xp_17_1 + xp_11_3 + xp_6_1 + xp_5_1
 <= 25.9391100702576
 r_64: + xp_23_2 + xp_22_2 + xp_17_3 <= 25.9391100702576
 r_65: + xp_20_1 + xp_19_2 + xp_14_1 + xp_10_1 + xp_2_1
 <= 29.2984869325997
 r_66: + xp_21_2 + xp_7_0 <= 29.2984869325997
 r_67: + xp_19_3 + xp_10_0 <= 29.2984869325997
 r_68: + xp_20_0 <= 29.2984869325997

Bounds
 0 <= xp_0_0 <= 27.6051687918046
 0 <= xp_0_1 <= 16.5631012750827
 0 <= xp_0_2 <= 5.52103375836092
 0 <= xp_0_3 <= 5.52103375836092
 0 <= xp_1_0 <= 18.0453056030211
 0 <= xp_1_1 <= 12.5242718446602
 0 <= xp_1_2 <= 0.741102163969182
 0 <= xp_2_0 <= 22.7378585566361
 0 <= xp_2_1 <= 0.653723523192483
 0 <= xp_2_2 <= 5.52103375836092
 0 <= xp_2_3 <= 1.96117056957745
 0 <= xp_3_0 <= 16.5631012750827
 0 <= xp_3_1 <= 11.0420675167218
 0 <= xp_4_0 <= 23.3009708737864
 0 <= xp_5_0 <= 18.6407766990291
 0 <= xp_5_1 <= 4.66019417475728
 0 <= xp_6_0 <= 16.7766990291262
 0 <= xp_6_1 <= 4.19417475728155
 0 <= xp_7_0 <= 20.0970873786408
 0 <= xp_8_0 <= 14.4466019417476
 0 <= xp_8_1 <= 3.61165048543689
 0 <= xp_9_0 <= 16.747572815534
 0 <= xp_10_0 <= 13.3980582524272
 0 <= xp_10_1 <= 3.3495145631068
 0 <= xp_11_0 <= 21.2038834951456
 0 <= xp_11_1 <= 11.0420675167218
 0 <= xp_11_2 <= 15.6828497367847
 0 <= xp_11_3 <= 5.0809079892119
 0 <= xp_12_0 <= 15.7281553398058
 0 <= xp_13_0 <= 12.2330097087379
 0 <= xp_13_1 <= 3.05825242718447
 0 <= xp_14_0 <= 11.6504854368932
 0 <= xp_14_1 <= 2.9126213592233
 0 <= xp_15_0 <= 14.4174757281553
 0 <= xp_16_0 <= 13.8349514563107
 0 <= xp_17_0 <= 24.6601886537235
 0 <= xp_17_1 <= 2.57605362027986
 0 <= xp_17_2 <= 5.15210724055972
 0 <= xp_17_3 <= 5.52103375836092
 0 <= xp_17_4 <= 2.57605362027986
 0 <= xp_18_0 <= 19.9482237454141
 0 <= xp_18_1 <= 11.0420675167218
 0 <= xp_18_2 <= 5.52103375836092
 0 <= xp_18_3 <= 2.22653905717307
 0 <= xp_19_0 <= 26.3624558662364
 0 <= xp_19_1 <= 2.13916041639637
 0 <= xp_19_2 <= 2.13916041639637
 0 <= xp_19_3 <= 7.66019417475728
 0 <= xp_20_0 <= 26.0711937303141
 0 <= xp_20_1 <= 11.5016218036665
 0 <= xp_21_0 <= 25.4304170312849
 0 <= xp_21_1 <= 7.19417475728155
 0 <= xp_21_2 <= 1.67314099892064
 0 <= xp_21_3 <= 1.67314099892064
 0 <= xp_22_0 <= 28.9870476548029
 0 <= xp_22_1 <= 2.76375772599661
 0 <= xp_22_2 <= 1.38187886299831
 0 <= xp_22_3 <= 1.38187886299831
 0 <= xp_23_0 <= 24.8478927594403
 0 <= xp_23_1 <= 6.90291262135922
 0 <= xp_23_2 <= 1.38187886299831
 0 <= xp_23_3 <= 1.38187886299831

End
